problem_generation/data/GISP/train/er_n=64_m=1192_p=0.60_SET2_setparam=100.00_alpha=0.50_787.lp
maximize
OBJ:100x0 + 100x1 + 100x2 + 100x3 + 100x4 + 100x5 + 100x6 + 100x7 + 100x8 + 100x9 + 100x10 + 100x11 + 100x12 + 100x13 + 100x14 + 100x15 + 100x16 + 100x17 + 100x18 + 100x19 + 100x20 + 100x21 + 100x22 + 100x23 + 100x24 + 100x25 + 100x26 + 100x27 + 100x28 + 100x29 + 100x30 + 100x31 + 100x32 + 100x33 + 100x34 + 100x35 + 100x36 + 100x37 + 100x38 + 100x39 + 100x40 + 100x41 + 100x42 + 100x43 + 100x44 + 100x45 + 100x46 + 100x47 + 100x48 + 100x49 + 100x50 + 100x51 + 100x52 + 100x53 + 100x54 + 100x55 + 100x56 + 100x57 + 100x58 + 100x59 + 100x60 + 100x61 + 100x62 + 100x63 - y15_21 - y55_57 - y36_53 - y47_53 - y7_26 - y36_62 - y26_39 - y47_62 - y7_35 - y18_44 - y9_63 - y0_5 - y29_41 - y48_54 - y0_14 - y48_63 - y21_46 - y6_57 - y11_23 - y33_38 - y33_47 - y25_43 - y44_56 - y25_52 - y3_15 - y2_59 - y25_61 - y32_60 - y22_37 - y22_46 - y14_51 - y7_12 - y55_61 - y7_21 - y36_57 - y28_53 - y18_30 - y5_60 - y17_62 - y48_49 - y6_52 - y29_54 - y29_63 - y10_40 - y2_45 - y51_59 - y32_55 - y43_55 - y14_28 - y14_37 - y7_16 - y59_63 - y5_55 - y9_62 - y6_38 - y29_40 - y48_53 - y21_45 - y2_13 - y54_60 - y10_35 - y33_37 - y10_44 - y12_63 - y51_54 - y22_27 - y36_38 - y9_30 - y55_60 - y36_56 - y28_52 - y6_24 - y50_58 - y42_63 - y21_40 - y6_51 - y21_49 - y10_21 - y2_17 - y31_53 - y10_30 - y2_26 - y20_62 - y23_58 - y13_32 - y32_45 - y43_45 - y3_18 - y16_46 - y28_29 - y9_25 - y9_34 - y17_47 - y9_43 - y28_56 - y6_28 - y42_58 - y39_43 - y39_52 - y39_61 - y12_44 - y31_57 - y13_27 - y32_40 - y13_36 - y35_36 - y43_49 - y1_43 - y24_63 - y5_22 - y17_24 - y36_37 - y17_33 - y5_40 - y6_14 - y5_58 - y8_51 - y21_30 - y8_60 - y30_60 - y42_62 - y11_56 - y39_47 - y39_56 - y23_39 - y2_16 - y20_52 - y31_52 - y23_48 - y54_63 - y12_57 - y13_22 - y13_31 - y4_62 - y32_44 - y13_40 - y24_40 - y43_53 - y13_49 - y17_19 - y38_60 - y49_60 - y5_35 - y9_33 - y27_41 - y6_18 - y27_50 - y50_52 - y8_46 - y30_55 - y20_29 - y31_38 - y2_11 - y31_47 - y39_60 - y12_43 - y23_52 - y13_26 - y4_57 - y24_44 - y37_63 - y5_21 - y46_59 - y57_59 - y26_53 - y38_55 - y15_62 - y7_58 - y6_13 - y8_32 - y19_41 - y30_41 - y8_50 - y0_46 - y30_59 - y12_20 - y20_42 - y12_38 - y23_38 - y31_51 - y12_47 - y1_10 - y12_56 - y53_57 - y45_53 - y45_62 - y38_41 - y9_14 - y15_48 - y46_63 - y49_50 - y57_63 - y7_62 - y8_27 - y18_62 - y19_27 - y19_36 - y50_51 - y0_32 - y11_32 - y11_41 - y4_11 - y0_59 - y12_24 - y39_41 - y31_37 - y23_33 - y4_38 - y4_47 - y1_23 - y53_61 - y45_57 - y56_57 - y1_32 - y3_51 - y37_53 - y5_11 - y18_39 - y15_52 - y38_54 - y7_48 - y15_61 - y7_57 - y11_18 - y8_40 - y11_36 - y8_49 - y0_45 - y41_46 - y4_6 - y0_54 - y41_55 - y33_51 - y33_60 - y25_56 - y2_63 - y22_50 - y45_52 - y34_61 - y3_55 - y15_29 - y26_29 - y18_25 - y38_40 - y18_34 - y15_56 - y8_17 - y27_30 - y0_13 - y8_26 - y8_35 - y11_31 - y41_50 - y4_10 - y12_23 - y10_53 - y25_51 - y4_28 - y2_58 - y1_13 - y3_32 - y34_47 - y3_41 - y37_43 - y45_56 - y14_50 - y22_63 - y14_59 - y15_24 - y15_42 - y26_42 - y0_8 - y18_56 - y8_21 - y19_21 - y4_5 - y41_54 - y25_37 - y10_48 - y10_57 - y44_59 - y2_53 - y14_27 - y37_38 - y3_45 - y7_15 - y3_63 - y7_24 - y18_24 - y15_37 - y7_33 - y26_46 - y7_42 - y0_3 - y11_12 - y19_25 - y10_34 - y2_39 - y25_41 - y10_52 - y44_54 - y33_63 - y25_59 - y3_22 - y14_31 - y7_10 - y55_59 - y7_19 - y28_51 - y7_28 - y28_60 - y18_37 - y29_34 - y6_41 - y11_16 - y21_48 - y6_59 - y10_29 - y10_38 - y33_40 - y33_49 - y25_45 - y2_52 - y3_17 - y32_53 - y14_26 - y22_39 - y13_58 - y3_35 - y28_46 - y7_23 - y9_42 - y47_59 - y29_38 - y29_47 - y40_47 - y6_54 - y21_61 - y10_24 - y33_35 - y2_29 - y10_42 - y43_48 - y3_21 - y13_53 - y35_53 - y3_30 - y14_30 - y24_62 - y35_62 - y16_58 - y36_54 - y17_50 - y28_50 - y9_46 - y17_59 - y28_59 - y58_60 - y9_55 - y21_29 - y29_42 - y40_51 - y6_58 - y10_19 - y2_33 - y2_42 - y13_39 - y24_39 - y14_25 - y16_44 - y35_57 - y16_53 - y17_18 - y16_62 - y17_27 - y36_49 - y9_32 - y5_43 - y28_63 - y6_26 - y6_35 - y10_14 - y39_50 - y2_10 - y31_46 - y31_55 - y10_32 - y23_60 - y13_25 - y13_34 - y3_11 - y13_43 - y32_56 - y16_39 - y24_52 - y5_47 - y17_49 - y9_45 - y6_21 - y6_39 - y11_63 - y10_18 - y2_14 - y12_46 - y13_20 - y4_51 - y24_29 - y4_60 - y16_25 - y1_36 - y13_38 - y32_51 - y16_34 - y35_38 - y24_47 - y16_43 - y1_54 - y13_56 - y17_26 - y46_62 - y9_22 - y49_58 - y17_35 - y27_48 - y50_59 - y8_53 - y0_49 - y8_62 - y30_62 - y11_58 - y12_32 - y31_45 - y39_58 - y12_41 - y20_54 - y23_50 - y31_63 - y4_46 - y13_24 - y13_33 - y43_46 - y16_29 - y1_40 - y35_42 - y24_51 - y46_57 - y9_17 - y17_30 - y9_26 - y49_62 - y30_39 - y30_57 - y20_31 - y0_62 - y2_4 - y4_23 - y39_53 - y23_36 - y20_49 - y4_32 - y12_45 - y1_8 - y31_58 - y4_50 - y23_63 - y34_60 - y56_60 - y1_35 - y13_37 - y1_44 - y16_42 - y27_29 - y8_25 - y8_34 - y27_47 - y19_43 - y30_43 - y30_52 - y11_57 - y20_35 - y20_44 - y31_44 - y12_40 - y4_45 - y34_46 - y13_23 - y16_19 - y45_55 - y3_58 - y5_9 - y38_52 - y7_46 - y15_59 - y49_61 - y18_55 - y8_20 - y0_25 - y19_47 - y0_43 - y8_56 - y30_56 - y11_61 - y12_26 - y4_22 - y23_44 - y1_7 - y34_41 - y53_54 - y1_25 - y56_59 - y14_53 - y37_55 - y15_45 - y26_45 - y38_47 - y15_54 - y38_56 - y49_56 - y8_15 - y27_37 - y30_33 - y11_29 - y19_42 - y0_38 - y4_8 - y52_57 - y33_53 - y44_53 - y12_30 - y4_26 - y33_62 - y34_36 - y1_11 - y22_43 - y3_39 - y37_41 - y34_54 - y22_61 - y34_63 - y7_18 - y18_27 - y18_36 - y7_45 - y48_55 - y27_32 - y11_15 - y21_56 - y0_42 - y41_43 - y41_52 - y10_46 - y4_21 - y25_53 - y22_29 - y34_40 - y3_34 - y3_43 - y22_56 - y45_58 - y59_60 - y18_31 - y17_63 - y7_40 - y18_40 - y0_1 - y7_49 - y18_49 - y29_46 - y40_46 - y29_55 - y30_32 - y41_47 - y33_52 - y2_46 - y25_48 - y33_61 - y2_55 - y34_44 - y37_40 - y14_47 - y7_8 - y3_56
 Subject to
C1: x0+x1-y0_1 <=1 
C2: x0+x3-y0_3 <=1 
C3: x0+x5-y0_5 <=1 
C4: x0+x8-y0_8 <=1 
C5: x0+x10 <=1 
C6: x0+x11 <=1 
C7: x0+x12 <=1 
C8: x0+x13-y0_13 <=1 
C9: x0+x14-y0_14 <=1 
C10: x0+x18 <=1 
C11: x0+x20 <=1 
C12: x0+x21 <=1 
C13: x0+x22 <=1 
C14: x0+x24 <=1 
C15: x0+x25-y0_25 <=1 
C16: x0+x27 <=1 
C17: x0+x32-y0_32 <=1 
C18: x0+x37 <=1 
C19: x0+x38-y0_38 <=1 
C20: x0+x40 <=1 
C21: x0+x42-y0_42 <=1 
C22: x0+x43-y0_43 <=1 
C23: x0+x44 <=1 
C24: x0+x45-y0_45 <=1 
C25: x0+x46-y0_46 <=1 
C26: x0+x47 <=1 
C27: x0+x48 <=1 
C28: x0+x49-y0_49 <=1 
C29: x0+x53 <=1 
C30: x0+x54-y0_54 <=1 
C31: x0+x56 <=1 
C32: x0+x58 <=1 
C33: x0+x59-y0_59 <=1 
C34: x0+x62-y0_62 <=1 
C35: x0+x63 <=1 
C36: x1+x2 <=1 
C37: x1+x4 <=1 
C38: x1+x5 <=1 
C39: x1+x7-y1_7 <=1 
C40: x1+x8-y1_8 <=1 
C41: x1+x9 <=1 
C42: x1+x10-y1_10 <=1 
C43: x1+x11-y1_11 <=1 
C44: x1+x13-y1_13 <=1 
C45: x1+x16 <=1 
C46: x1+x17 <=1 
C47: x1+x18 <=1 
C48: x1+x21 <=1 
C49: x1+x23-y1_23 <=1 
C50: x1+x25-y1_25 <=1 
C51: x1+x28 <=1 
C52: x1+x29 <=1 
C53: x1+x32-y1_32 <=1 
C54: x1+x34 <=1 
C55: x1+x35-y1_35 <=1 
C56: x1+x36-y1_36 <=1 
C57: x1+x38 <=1 
C58: x1+x40-y1_40 <=1 
C59: x1+x41 <=1 
C60: x1+x43-y1_43 <=1 
C61: x1+x44-y1_44 <=1 
C62: x1+x46 <=1 
C63: x1+x47 <=1 
C64: x1+x48 <=1 
C65: x1+x49 <=1 
C66: x1+x52 <=1 
C67: x1+x53 <=1 
C68: x1+x54-y1_54 <=1 
C69: x1+x56 <=1 
C70: x1+x57 <=1 
C71: x1+x61 <=1 
C72: x1+x63 <=1 
C73: x2+x4-y2_4 <=1 
C74: x2+x6 <=1 
C75: x2+x7 <=1 
C76: x2+x10-y2_10 <=1 
C77: x2+x11-y2_11 <=1 
C78: x2+x13-y2_13 <=1 
C79: x2+x14-y2_14 <=1 
C80: x2+x16-y2_16 <=1 
C81: x2+x17-y2_17 <=1 
C82: x2+x18 <=1 
C83: x2+x19 <=1 
C84: x2+x26-y2_26 <=1 
C85: x2+x29-y2_29 <=1 
C86: x2+x31 <=1 
C87: x2+x33-y2_33 <=1 
C88: x2+x39-y2_39 <=1 
C89: x2+x40 <=1 
C90: x2+x42-y2_42 <=1 
C91: x2+x44 <=1 
C92: x2+x45-y2_45 <=1 
C93: x2+x46-y2_46 <=1 
C94: x2+x47 <=1 
C95: x2+x48 <=1 
C96: x2+x49 <=1 
C97: x2+x51 <=1 
C98: x2+x52-y2_52 <=1 
C99: x2+x53-y2_53 <=1 
C100: x2+x55-y2_55 <=1 
C101: x2+x58-y2_58 <=1 
C102: x2+x59-y2_59 <=1 
C103: x2+x60 <=1 
C104: x2+x61 <=1 
C105: x2+x62 <=1 
C106: x2+x63-y2_63 <=1 
C107: x3+x5 <=1 
C108: x3+x8 <=1 
C109: x3+x11-y3_11 <=1 
C110: x3+x15-y3_15 <=1 
C111: x3+x16 <=1 
C112: x3+x17-y3_17 <=1 
C113: x3+x18-y3_18 <=1 
C114: x3+x21-y3_21 <=1 
C115: x3+x22-y3_22 <=1 
C116: x3+x23 <=1 
C117: x3+x24 <=1 
C118: x3+x25 <=1 
C119: x3+x26 <=1 
C120: x3+x27 <=1 
C121: x3+x30-y3_30 <=1 
C122: x3+x31 <=1 
C123: x3+x32-y3_32 <=1 
C124: x3+x33 <=1 
C125: x3+x34-y3_34 <=1 
C126: x3+x35-y3_35 <=1 
C127: x3+x37 <=1 
C128: x3+x38 <=1 
C129: x3+x39-y3_39 <=1 
C130: x3+x41-y3_41 <=1 
C131: x3+x42 <=1 
C132: x3+x43-y3_43 <=1 
C133: x3+x44 <=1 
C134: x3+x45-y3_45 <=1 
C135: x3+x47 <=1 
C136: x3+x51-y3_51 <=1 
C137: x3+x52 <=1 
C138: x3+x54 <=1 
C139: x3+x55-y3_55 <=1 
C140: x3+x56-y3_56 <=1 
C141: x3+x57 <=1 
C142: x3+x58-y3_58 <=1 
C143: x3+x61 <=1 
C144: x3+x62 <=1 
C145: x3+x63-y3_63 <=1 
C146: x4+x5-y4_5 <=1 
C147: x4+x6-y4_6 <=1 
C148: x4+x8-y4_8 <=1 
C149: x4+x10-y4_10 <=1 
C150: x4+x11-y4_11 <=1 
C151: x4+x12 <=1 
C152: x4+x17 <=1 
C153: x4+x21-y4_21 <=1 
C154: x4+x22-y4_22 <=1 
C155: x4+x23-y4_23 <=1 
C156: x4+x26-y4_26 <=1 
C157: x4+x28-y4_28 <=1 
C158: x4+x29 <=1 
C159: x4+x32-y4_32 <=1 
C160: x4+x36 <=1 
C161: x4+x38-y4_38 <=1 
C162: x4+x39 <=1 
C163: x4+x42 <=1 
C164: x4+x44 <=1 
C165: x4+x45-y4_45 <=1 
C166: x4+x46-y4_46 <=1 
C167: x4+x47-y4_47 <=1 
C168: x4+x48 <=1 
C169: x4+x49 <=1 
C170: x4+x50-y4_50 <=1 
C171: x4+x51-y4_51 <=1 
C172: x4+x52 <=1 
C173: x4+x54 <=1 
C174: x4+x56 <=1 
C175: x4+x57-y4_57 <=1 
C176: x4+x59 <=1 
C177: x4+x60-y4_60 <=1 
C178: x4+x62-y4_62 <=1 
C179: x4+x63 <=1 
C180: x5+x6 <=1 
C181: x5+x7 <=1 
C182: x5+x8 <=1 
C183: x5+x9-y5_9 <=1 
C184: x5+x11-y5_11 <=1 
C185: x5+x13 <=1 
C186: x5+x17 <=1 
C187: x5+x18 <=1 
C188: x5+x19 <=1 
C189: x5+x21-y5_21 <=1 
C190: x5+x22-y5_22 <=1 
C191: x5+x25 <=1 
C192: x5+x28 <=1 
C193: x5+x29 <=1 
C194: x5+x32 <=1 
C195: x5+x33 <=1 
C196: x5+x35-y5_35 <=1 
C197: x5+x36 <=1 
C198: x5+x38 <=1 
C199: x5+x39 <=1 
C200: x5+x40-y5_40 <=1 
C201: x5+x41 <=1 
C202: x5+x43-y5_43 <=1 
C203: x5+x46 <=1 
C204: x5+x47-y5_47 <=1 
C205: x5+x48 <=1 
C206: x5+x49 <=1 
C207: x5+x51 <=1 
C208: x5+x53 <=1 
C209: x5+x55-y5_55 <=1 
C210: x5+x58-y5_58 <=1 
C211: x5+x60-y5_60 <=1 
C212: x5+x63 <=1 
C213: x6+x9 <=1 
C214: x6+x10 <=1 
C215: x6+x13-y6_13 <=1 
C216: x6+x14-y6_14 <=1 
C217: x6+x16 <=1 
C218: x6+x18-y6_18 <=1 
C219: x6+x20 <=1 
C220: x6+x21-y6_21 <=1 
C221: x6+x22 <=1 
C222: x6+x24-y6_24 <=1 
C223: x6+x25 <=1 
C224: x6+x26-y6_26 <=1 
C225: x6+x28-y6_28 <=1 
C226: x6+x32 <=1 
C227: x6+x35-y6_35 <=1 
C228: x6+x38-y6_38 <=1 
C229: x6+x39-y6_39 <=1 
C230: x6+x41-y6_41 <=1 
C231: x6+x43 <=1 
C232: x6+x44 <=1 
C233: x6+x45 <=1 
C234: x6+x46 <=1 
C235: x6+x51-y6_51 <=1 
C236: x6+x52-y6_52 <=1 
C237: x6+x54-y6_54 <=1 
C238: x6+x55 <=1 
C239: x6+x57-y6_57 <=1 
C240: x6+x58-y6_58 <=1 
C241: x6+x59-y6_59 <=1 
C242: x6+x61 <=1 
C243: x6+x62 <=1 
C244: x6+x63 <=1 
C245: x7+x8-y7_8 <=1 
C246: x7+x10-y7_10 <=1 
C247: x7+x12-y7_12 <=1 
C248: x7+x15-y7_15 <=1 
C249: x7+x16-y7_16 <=1 
C250: x7+x18-y7_18 <=1 
C251: x7+x19-y7_19 <=1 
C252: x7+x21-y7_21 <=1 
C253: x7+x22 <=1 
C254: x7+x23-y7_23 <=1 
C255: x7+x24-y7_24 <=1 
C256: x7+x25 <=1 
C257: x7+x26-y7_26 <=1 
C258: x7+x28-y7_28 <=1 
C259: x7+x29 <=1 
C260: x7+x31 <=1 
C261: x7+x33-y7_33 <=1 
C262: x7+x35-y7_35 <=1 
C263: x7+x37 <=1 
C264: x7+x40-y7_40 <=1 
C265: x7+x41 <=1 
C266: x7+x42-y7_42 <=1 
C267: x7+x44 <=1 
C268: x7+x45-y7_45 <=1 
C269: x7+x46-y7_46 <=1 
C270: x7+x47 <=1 
C271: x7+x48-y7_48 <=1 
C272: x7+x49-y7_49 <=1 
C273: x7+x53 <=1 
C274: x7+x55 <=1 
C275: x7+x57-y7_57 <=1 
C276: x7+x58-y7_58 <=1 
C277: x7+x61 <=1 
C278: x7+x62-y7_62 <=1 
C279: x8+x11 <=1 
C280: x8+x13 <=1 
C281: x8+x15-y8_15 <=1 
C282: x8+x17-y8_17 <=1 
C283: x8+x18 <=1 
C284: x8+x19 <=1 
C285: x8+x20-y8_20 <=1 
C286: x8+x21-y8_21 <=1 
C287: x8+x24 <=1 
C288: x8+x25-y8_25 <=1 
C289: x8+x26-y8_26 <=1 
C290: x8+x27-y8_27 <=1 
C291: x8+x28 <=1 
C292: x8+x29 <=1 
C293: x8+x30 <=1 
C294: x8+x32-y8_32 <=1 
C295: x8+x33 <=1 
C296: x8+x34-y8_34 <=1 
C297: x8+x35-y8_35 <=1 
C298: x8+x37 <=1 
C299: x8+x38 <=1 
C300: x8+x40-y8_40 <=1 
C301: x8+x41 <=1 
C302: x8+x45 <=1 
C303: x8+x46-y8_46 <=1 
C304: x8+x47 <=1 
C305: x8+x49-y8_49 <=1 
C306: x8+x50-y8_50 <=1 
C307: x8+x51-y8_51 <=1 
C308: x8+x52 <=1 
C309: x8+x53-y8_53 <=1 
C310: x8+x56-y8_56 <=1 
C311: x8+x57 <=1 
C312: x8+x58 <=1 
C313: x8+x59 <=1 
C314: x8+x60-y8_60 <=1 
C315: x8+x62-y8_62 <=1 
C316: x9+x13 <=1 
C317: x9+x14-y9_14 <=1 
C318: x9+x16 <=1 
C319: x9+x17-y9_17 <=1 
C320: x9+x21 <=1 
C321: x9+x22-y9_22 <=1 
C322: x9+x23 <=1 
C323: x9+x25-y9_25 <=1 
C324: x9+x26-y9_26 <=1 
C325: x9+x30-y9_30 <=1 
C326: x9+x31 <=1 
C327: x9+x32-y9_32 <=1 
C328: x9+x33-y9_33 <=1 
C329: x9+x34-y9_34 <=1 
C330: x9+x37 <=1 
C331: x9+x41 <=1 
C332: x9+x42-y9_42 <=1 
C333: x9+x43-y9_43 <=1 
C334: x9+x45-y9_45 <=1 
C335: x9+x46-y9_46 <=1 
C336: x9+x52 <=1 
C337: x9+x55-y9_55 <=1 
C338: x9+x62-y9_62 <=1 
C339: x9+x63-y9_63 <=1 
C340: x10+x11 <=1 
C341: x10+x13 <=1 
C342: x10+x14-y10_14 <=1 
C343: x10+x16 <=1 
C344: x10+x17 <=1 
C345: x10+x18-y10_18 <=1 
C346: x10+x19-y10_19 <=1 
C347: x10+x21-y10_21 <=1 
C348: x10+x22 <=1 
C349: x10+x24-y10_24 <=1 
C350: x10+x26 <=1 
C351: x10+x27 <=1 
C352: x10+x28 <=1 
C353: x10+x29-y10_29 <=1 
C354: x10+x30-y10_30 <=1 
C355: x10+x31 <=1 
C356: x10+x32-y10_32 <=1 
C357: x10+x34-y10_34 <=1 
C358: x10+x35-y10_35 <=1 
C359: x10+x37 <=1 
C360: x10+x38-y10_38 <=1 
C361: x10+x39 <=1 
C362: x10+x40-y10_40 <=1 
C363: x10+x41 <=1 
C364: x10+x42-y10_42 <=1 
C365: x10+x44-y10_44 <=1 
C366: x10+x45 <=1 
C367: x10+x46-y10_46 <=1 
C368: x10+x47 <=1 
C369: x10+x48-y10_48 <=1 
C370: x10+x52-y10_52 <=1 
C371: x10+x53-y10_53 <=1 
C372: x10+x55 <=1 
C373: x10+x56 <=1 
C374: x10+x57-y10_57 <=1 
C375: x10+x58 <=1 
C376: x10+x59 <=1 
C377: x10+x61 <=1 
C378: x10+x62 <=1 
C379: x11+x12-y11_12 <=1 
C380: x11+x13 <=1 
C381: x11+x14 <=1 
C382: x11+x15-y11_15 <=1 
C383: x11+x16-y11_16 <=1 
C384: x11+x18-y11_18 <=1 
C385: x11+x20 <=1 
C386: x11+x23-y11_23 <=1 
C387: x11+x25 <=1 
C388: x11+x28 <=1 
C389: x11+x29-y11_29 <=1 
C390: x11+x31-y11_31 <=1 
C391: x11+x32-y11_32 <=1 
C392: x11+x34 <=1 
C393: x11+x36-y11_36 <=1 
C394: x11+x38 <=1 
C395: x11+x39 <=1 
C396: x11+x41-y11_41 <=1 
C397: x11+x44 <=1 
C398: x11+x45 <=1 
C399: x11+x47 <=1 
C400: x11+x50 <=1 
C401: x11+x56-y11_56 <=1 
C402: x11+x57-y11_57 <=1 
C403: x11+x58-y11_58 <=1 
C404: x11+x59 <=1 
C405: x11+x60 <=1 
C406: x11+x61-y11_61 <=1 
C407: x11+x62 <=1 
C408: x11+x63-y11_63 <=1 
C409: x12+x13 <=1 
C410: x12+x14 <=1 
C411: x12+x15 <=1 
C412: x12+x16 <=1 
C413: x12+x20-y12_20 <=1 
C414: x12+x23-y12_23 <=1 
C415: x12+x24-y12_24 <=1 
C416: x12+x26-y12_26 <=1 
C417: x12+x27 <=1 
C418: x12+x29 <=1 
C419: x12+x30-y12_30 <=1 
C420: x12+x32-y12_32 <=1 
C421: x12+x33 <=1 
C422: x12+x34 <=1 
C423: x12+x35 <=1 
C424: x12+x36 <=1 
C425: x12+x37 <=1 
C426: x12+x38-y12_38 <=1 
C427: x12+x39 <=1 
C428: x12+x40-y12_40 <=1 
C429: x12+x41-y12_41 <=1 
C430: x12+x43-y12_43 <=1 
C431: x12+x44-y12_44 <=1 
C432: x12+x45-y12_45 <=1 
C433: x12+x46-y12_46 <=1 
C434: x12+x47-y12_47 <=1 
C435: x12+x49 <=1 
C436: x12+x50 <=1 
C437: x12+x51 <=1 
C438: x12+x53 <=1 
C439: x12+x55 <=1 
C440: x12+x56-y12_56 <=1 
C441: x12+x57-y12_57 <=1 
C442: x12+x58 <=1 
C443: x12+x60 <=1 
C444: x12+x63-y12_63 <=1 
C445: x13+x15 <=1 
C446: x13+x16 <=1 
C447: x13+x19 <=1 
C448: x13+x20-y13_20 <=1 
C449: x13+x22-y13_22 <=1 
C450: x13+x23-y13_23 <=1 
C451: x13+x24-y13_24 <=1 
C452: x13+x25-y13_25 <=1 
C453: x13+x26-y13_26 <=1 
C454: x13+x27-y13_27 <=1 
C455: x13+x28 <=1 
C456: x13+x29 <=1 
C457: x13+x30 <=1 
C458: x13+x31-y13_31 <=1 
C459: x13+x32-y13_32 <=1 
C460: x13+x33-y13_33 <=1 
C461: x13+x34-y13_34 <=1 
C462: x13+x36-y13_36 <=1 
C463: x13+x37-y13_37 <=1 
C464: x13+x38-y13_38 <=1 
C465: x13+x39-y13_39 <=1 
C466: x13+x40-y13_40 <=1 
C467: x13+x42 <=1 
C468: x13+x43-y13_43 <=1 
C469: x13+x44 <=1 
C470: x13+x49-y13_49 <=1 
C471: x13+x53-y13_53 <=1 
C472: x13+x54 <=1 
C473: x13+x55 <=1 
C474: x13+x56-y13_56 <=1 
C475: x13+x57 <=1 
C476: x13+x58-y13_58 <=1 
C477: x13+x60 <=1 
C478: x14+x17 <=1 
C479: x14+x20 <=1 
C480: x14+x23 <=1 
C481: x14+x24 <=1 
C482: x14+x25-y14_25 <=1 
C483: x14+x26-y14_26 <=1 
C484: x14+x27-y14_27 <=1 
C485: x14+x28-y14_28 <=1 
C486: x14+x29 <=1 
C487: x14+x30-y14_30 <=1 
C488: x14+x31-y14_31 <=1 
C489: x14+x33 <=1 
C490: x14+x34 <=1 
C491: x14+x35 <=1 
C492: x14+x36 <=1 
C493: x14+x37-y14_37 <=1 
C494: x14+x39 <=1 
C495: x14+x40 <=1 
C496: x14+x41 <=1 
C497: x14+x42 <=1 
C498: x14+x43 <=1 
C499: x14+x44 <=1 
C500: x14+x45 <=1 
C501: x14+x47-y14_47 <=1 
C502: x14+x48 <=1 
C503: x14+x50-y14_50 <=1 
C504: x14+x51-y14_51 <=1 
C505: x14+x53-y14_53 <=1 
C506: x14+x55 <=1 
C507: x14+x57 <=1 
C508: x14+x59-y14_59 <=1 
C509: x14+x61 <=1 
C510: x15+x19 <=1 
C511: x15+x21-y15_21 <=1 
C512: x15+x22 <=1 
C513: x15+x23 <=1 
C514: x15+x24-y15_24 <=1 
C515: x15+x26 <=1 
C516: x15+x28 <=1 
C517: x15+x29-y15_29 <=1 
C518: x15+x30 <=1 
C519: x15+x32 <=1 
C520: x15+x34 <=1 
C521: x15+x37-y15_37 <=1 
C522: x15+x38 <=1 
C523: x15+x41 <=1 
C524: x15+x42-y15_42 <=1 
C525: x15+x45-y15_45 <=1 
C526: x15+x46 <=1 
C527: x15+x48-y15_48 <=1 
C528: x15+x52-y15_52 <=1 
C529: x15+x53 <=1 
C530: x15+x54-y15_54 <=1 
C531: x15+x55 <=1 
C532: x15+x56-y15_56 <=1 
C533: x15+x59-y15_59 <=1 
C534: x15+x60 <=1 
C535: x15+x61-y15_61 <=1 
C536: x15+x62-y15_62 <=1 
C537: x16+x19-y16_19 <=1 
C538: x16+x21 <=1 
C539: x16+x22 <=1 
C540: x16+x24 <=1 
C541: x16+x25-y16_25 <=1 
C542: x16+x26 <=1 
C543: x16+x28 <=1 
C544: x16+x29-y16_29 <=1 
C545: x16+x30 <=1 
C546: x16+x31 <=1 
C547: x16+x32 <=1 
C548: x16+x34-y16_34 <=1 
C549: x16+x37 <=1 
C550: x16+x39-y16_39 <=1 
C551: x16+x41 <=1 
C552: x16+x42-y16_42 <=1 
C553: x16+x43-y16_43 <=1 
C554: x16+x44-y16_44 <=1 
C555: x16+x46-y16_46 <=1 
C556: x16+x47 <=1 
C557: x16+x51 <=1 
C558: x16+x53-y16_53 <=1 
C559: x16+x55 <=1 
C560: x16+x57 <=1 
C561: x16+x58-y16_58 <=1 
C562: x16+x60 <=1 
C563: x16+x62-y16_62 <=1 
C564: x17+x18-y17_18 <=1 
C565: x17+x19-y17_19 <=1 
C566: x17+x20 <=1 
C567: x17+x21 <=1 
C568: x17+x22 <=1 
C569: x17+x24-y17_24 <=1 
C570: x17+x26-y17_26 <=1 
C571: x17+x27-y17_27 <=1 
C572: x17+x28 <=1 
C573: x17+x29 <=1 
C574: x17+x30-y17_30 <=1 
C575: x17+x33-y17_33 <=1 
C576: x17+x35-y17_35 <=1 
C577: x17+x38 <=1 
C578: x17+x44 <=1 
C579: x17+x45 <=1 
C580: x17+x46 <=1 
C581: x17+x47-y17_47 <=1 
C582: x17+x48 <=1 
C583: x17+x49-y17_49 <=1 
C584: x17+x50-y17_50 <=1 
C585: x17+x51 <=1 
C586: x17+x52 <=1 
C587: x17+x53 <=1 
C588: x17+x55 <=1 
C589: x17+x56 <=1 
C590: x17+x59-y17_59 <=1 
C591: x17+x62-y17_62 <=1 
C592: x17+x63-y17_63 <=1 
C593: x18+x24-y18_24 <=1 
C594: x18+x25-y18_25 <=1 
C595: x18+x27-y18_27 <=1 
C596: x18+x30-y18_30 <=1 
C597: x18+x31-y18_31 <=1 
C598: x18+x32 <=1 
C599: x18+x33 <=1 
C600: x18+x34-y18_34 <=1 
C601: x18+x36-y18_36 <=1 
C602: x18+x37-y18_37 <=1 
C603: x18+x38 <=1 
C604: x18+x39-y18_39 <=1 
C605: x18+x40-y18_40 <=1 
C606: x18+x41 <=1 
C607: x18+x44-y18_44 <=1 
C608: x18+x49-y18_49 <=1 
C609: x18+x51 <=1 
C610: x18+x53 <=1 
C611: x18+x55-y18_55 <=1 
C612: x18+x56-y18_56 <=1 
C613: x18+x57 <=1 
C614: x18+x58 <=1 
C615: x18+x59 <=1 
C616: x18+x60 <=1 
C617: x18+x62-y18_62 <=1 
C618: x18+x63 <=1 
C619: x19+x20 <=1 
C620: x19+x21-y19_21 <=1 
C621: x19+x24 <=1 
C622: x19+x25-y19_25 <=1 
C623: x19+x26 <=1 
C624: x19+x27-y19_27 <=1 
C625: x19+x36-y19_36 <=1 
C626: x19+x37 <=1 
C627: x19+x40 <=1 
C628: x19+x41-y19_41 <=1 
C629: x19+x42-y19_42 <=1 
C630: x19+x43-y19_43 <=1 
C631: x19+x44 <=1 
C632: x19+x46 <=1 
C633: x19+x47-y19_47 <=1 
C634: x19+x52 <=1 
C635: x19+x54 <=1 
C636: x19+x55 <=1 
C637: x19+x62 <=1 
C638: x19+x63 <=1 
C639: x20+x24 <=1 
C640: x20+x26 <=1 
C641: x20+x27 <=1 
C642: x20+x29-y20_29 <=1 
C643: x20+x31-y20_31 <=1 
C644: x20+x33 <=1 
C645: x20+x34 <=1 
C646: x20+x35-y20_35 <=1 
C647: x20+x36 <=1 
C648: x20+x40 <=1 
C649: x20+x41 <=1 
C650: x20+x42-y20_42 <=1 
C651: x20+x44-y20_44 <=1 
C652: x20+x46 <=1 
C653: x20+x47 <=1 
C654: x20+x48 <=1 
C655: x20+x49-y20_49 <=1 
C656: x20+x50 <=1 
C657: x20+x52-y20_52 <=1 
C658: x20+x54-y20_54 <=1 
C659: x20+x55 <=1 
C660: x20+x57 <=1 
C661: x20+x58 <=1 
C662: x20+x59 <=1 
C663: x20+x62-y20_62 <=1 
C664: x20+x63 <=1 
C665: x21+x25 <=1 
C666: x21+x29-y21_29 <=1 
C667: x21+x30-y21_30 <=1 
C668: x21+x31 <=1 
C669: x21+x35 <=1 
C670: x21+x39 <=1 
C671: x21+x40-y21_40 <=1 
C672: x21+x42 <=1 
C673: x21+x44 <=1 
C674: x21+x45-y21_45 <=1 
C675: x21+x46-y21_46 <=1 
C676: x21+x48-y21_48 <=1 
C677: x21+x49-y21_49 <=1 
C678: x21+x50 <=1 
C679: x21+x53 <=1 
C680: x21+x55 <=1 
C681: x21+x56-y21_56 <=1 
C682: x21+x61-y21_61 <=1 
C683: x21+x62 <=1 
C684: x21+x63 <=1 
C685: x22+x23 <=1 
C686: x22+x26 <=1 
C687: x22+x27-y22_27 <=1 
C688: x22+x28 <=1 
C689: x22+x29-y22_29 <=1 
C690: x22+x30 <=1 
C691: x22+x31 <=1 
C692: x22+x32 <=1 
C693: x22+x35 <=1 
C694: x22+x37-y22_37 <=1 
C695: x22+x38 <=1 
C696: x22+x39-y22_39 <=1 
C697: x22+x40 <=1 
C698: x22+x43-y22_43 <=1 
C699: x22+x46-y22_46 <=1 
C700: x22+x48 <=1 
C701: x22+x50-y22_50 <=1 
C702: x22+x51 <=1 
C703: x22+x52 <=1 
C704: x22+x53 <=1 
C705: x22+x54 <=1 
C706: x22+x56-y22_56 <=1 
C707: x22+x61-y22_61 <=1 
C708: x22+x63-y22_63 <=1 
C709: x23+x30 <=1 
C710: x23+x31 <=1 
C711: x23+x33-y23_33 <=1 
C712: x23+x36-y23_36 <=1 
C713: x23+x37 <=1 
C714: x23+x38-y23_38 <=1 
C715: x23+x39-y23_39 <=1 
C716: x23+x42 <=1 
C717: x23+x44-y23_44 <=1 
C718: x23+x48-y23_48 <=1 
C719: x23+x49 <=1 
C720: x23+x50-y23_50 <=1 
C721: x23+x51 <=1 
C722: x23+x52-y23_52 <=1 
C723: x23+x54 <=1 
C724: x23+x55 <=1 
C725: x23+x56 <=1 
C726: x23+x57 <=1 
C727: x23+x58-y23_58 <=1 
C728: x23+x59 <=1 
C729: x23+x60-y23_60 <=1 
C730: x23+x62 <=1 
C731: x23+x63-y23_63 <=1 
C732: x24+x25 <=1 
C733: x24+x28 <=1 
C734: x24+x29-y24_29 <=1 
C735: x24+x30 <=1 
C736: x24+x31 <=1 
C737: x24+x36 <=1 
C738: x24+x38 <=1 
C739: x24+x39-y24_39 <=1 
C740: x24+x40-y24_40 <=1 
C741: x24+x44-y24_44 <=1 
C742: x24+x45 <=1 
C743: x24+x47-y24_47 <=1 
C744: x24+x48 <=1 
C745: x24+x50 <=1 
C746: x24+x51-y24_51 <=1 
C747: x24+x52-y24_52 <=1 
C748: x24+x53 <=1 
C749: x24+x55 <=1 
C750: x24+x56 <=1 
C751: x24+x59 <=1 
C752: x24+x60 <=1 
C753: x24+x62-y24_62 <=1 
C754: x24+x63-y24_63 <=1 
C755: x25+x26 <=1 
C756: x25+x28 <=1 
C757: x25+x29 <=1 
C758: x25+x31 <=1 
C759: x25+x32 <=1 
C760: x25+x37-y25_37 <=1 
C761: x25+x39 <=1 
C762: x25+x41-y25_41 <=1 
C763: x25+x43-y25_43 <=1 
C764: x25+x45-y25_45 <=1 
C765: x25+x46 <=1 
C766: x25+x48-y25_48 <=1 
C767: x25+x49 <=1 
C768: x25+x50 <=1 
C769: x25+x51-y25_51 <=1 
C770: x25+x52-y25_52 <=1 
C771: x25+x53-y25_53 <=1 
C772: x25+x54 <=1 
C773: x25+x56-y25_56 <=1 
C774: x25+x59-y25_59 <=1 
C775: x25+x60 <=1 
C776: x25+x61-y25_61 <=1 
C777: x26+x27 <=1 
C778: x26+x29-y26_29 <=1 
C779: x26+x31 <=1 
C780: x26+x32 <=1 
C781: x26+x33 <=1 
C782: x26+x35 <=1 
C783: x26+x36 <=1 
C784: x26+x38 <=1 
C785: x26+x39-y26_39 <=1 
C786: x26+x40 <=1 
C787: x26+x41 <=1 
C788: x26+x42-y26_42 <=1 
C789: x26+x43 <=1 
C790: x26+x45-y26_45 <=1 
C791: x26+x46-y26_46 <=1 
C792: x26+x51 <=1 
C793: x26+x53-y26_53 <=1 
C794: x26+x54 <=1 
C795: x26+x55 <=1 
C796: x26+x57 <=1 
C797: x26+x59 <=1 
C798: x26+x61 <=1 
C799: x26+x63 <=1 
C800: x27+x28 <=1 
C801: x27+x29-y27_29 <=1 
C802: x27+x30-y27_30 <=1 
C803: x27+x32-y27_32 <=1 
C804: x27+x33 <=1 
C805: x27+x36 <=1 
C806: x27+x37-y27_37 <=1 
C807: x27+x39 <=1 
C808: x27+x41-y27_41 <=1 
C809: x27+x42 <=1 
C810: x27+x44 <=1 
C811: x27+x45 <=1 
C812: x27+x47-y27_47 <=1 
C813: x27+x48-y27_48 <=1 
C814: x27+x50-y27_50 <=1 
C815: x27+x51 <=1 
C816: x27+x54 <=1 
C817: x27+x56 <=1 
C818: x27+x62 <=1 
C819: x27+x63 <=1 
C820: x28+x29-y28_29 <=1 
C821: x28+x32 <=1 
C822: x28+x33 <=1 
C823: x28+x35 <=1 
C824: x28+x36 <=1 
C825: x28+x37 <=1 
C826: x28+x39 <=1 
C827: x28+x43 <=1 
C828: x28+x44 <=1 
C829: x28+x45 <=1 
C830: x28+x46-y28_46 <=1 
C831: x28+x49 <=1 
C832: x28+x50-y28_50 <=1 
C833: x28+x51-y28_51 <=1 
C834: x28+x52-y28_52 <=1 
C835: x28+x53-y28_53 <=1 
C836: x28+x56-y28_56 <=1 
C837: x28+x57 <=1 
C838: x28+x58 <=1 
C839: x28+x59-y28_59 <=1 
C840: x28+x60-y28_60 <=1 
C841: x28+x61 <=1 
C842: x28+x63-y28_63 <=1 
C843: x29+x32 <=1 
C844: x29+x33 <=1 
C845: x29+x34-y29_34 <=1 
C846: x29+x35 <=1 
C847: x29+x37 <=1 
C848: x29+x38-y29_38 <=1 
C849: x29+x39 <=1 
C850: x29+x40-y29_40 <=1 
C851: x29+x41-y29_41 <=1 
C852: x29+x42-y29_42 <=1 
C853: x29+x43 <=1 
C854: x29+x46-y29_46 <=1 
C855: x29+x47-y29_47 <=1 
C856: x29+x50 <=1 
C857: x29+x51 <=1 
C858: x29+x53 <=1 
C859: x29+x54-y29_54 <=1 
C860: x29+x55-y29_55 <=1 
C861: x29+x57 <=1 
C862: x29+x58 <=1 
C863: x29+x61 <=1 
C864: x29+x63-y29_63 <=1 
C865: x30+x32-y30_32 <=1 
C866: x30+x33-y30_33 <=1 
C867: x30+x35 <=1 
C868: x30+x36 <=1 
C869: x30+x37 <=1 
C870: x30+x39-y30_39 <=1 
C871: x30+x41-y30_41 <=1 
C872: x30+x42 <=1 
C873: x30+x43-y30_43 <=1 
C874: x30+x46 <=1 
C875: x30+x47 <=1 
C876: x30+x51 <=1 
C877: x30+x52-y30_52 <=1 
C878: x30+x53 <=1 
C879: x30+x54 <=1 
C880: x30+x55-y30_55 <=1 
C881: x30+x56-y30_56 <=1 
C882: x30+x57-y30_57 <=1 
C883: x30+x58 <=1 
C884: x30+x59-y30_59 <=1 
C885: x30+x60-y30_60 <=1 
C886: x30+x62-y30_62 <=1 
C887: x31+x32 <=1 
C888: x31+x33 <=1 
C889: x31+x36 <=1 
C890: x31+x37-y31_37 <=1 
C891: x31+x38-y31_38 <=1 
C892: x31+x42 <=1 
C893: x31+x43 <=1 
C894: x31+x44-y31_44 <=1 
C895: x31+x45-y31_45 <=1 
C896: x31+x46-y31_46 <=1 
C897: x31+x47-y31_47 <=1 
C898: x31+x49 <=1 
C899: x31+x51-y31_51 <=1 
C900: x31+x52-y31_52 <=1 
C901: x31+x53-y31_53 <=1 
C902: x31+x55-y31_55 <=1 
C903: x31+x56 <=1 
C904: x31+x57-y31_57 <=1 
C905: x31+x58-y31_58 <=1 
C906: x31+x61 <=1 
C907: x31+x63-y31_63 <=1 
C908: x32+x35 <=1 
C909: x32+x37 <=1 
C910: x32+x38 <=1 
C911: x32+x40-y32_40 <=1 
C912: x32+x43 <=1 
C913: x32+x44-y32_44 <=1 
C914: x32+x45-y32_45 <=1 
C915: x32+x46 <=1 
C916: x32+x48 <=1 
C917: x32+x51-y32_51 <=1 
C918: x32+x53-y32_53 <=1 
C919: x32+x54 <=1 
C920: x32+x55-y32_55 <=1 
C921: x32+x56-y32_56 <=1 
C922: x32+x57 <=1 
C923: x32+x60-y32_60 <=1 
C924: x33+x35-y33_35 <=1 
C925: x33+x36 <=1 
C926: x33+x37-y33_37 <=1 
C927: x33+x38-y33_38 <=1 
C928: x33+x39 <=1 
C929: x33+x40-y33_40 <=1 
C930: x33+x42 <=1 
C931: x33+x43 <=1 
C932: x33+x44 <=1 
C933: x33+x46 <=1 
C934: x33+x47-y33_47 <=1 
C935: x33+x49-y33_49 <=1 
C936: x33+x51-y33_51 <=1 
C937: x33+x52-y33_52 <=1 
C938: x33+x53-y33_53 <=1 
C939: x33+x55 <=1 
C940: x33+x56 <=1 
C941: x33+x57 <=1 
C942: x33+x58 <=1 
C943: x33+x59 <=1 
C944: x33+x60-y33_60 <=1 
C945: x33+x61-y33_61 <=1 
C946: x33+x62-y33_62 <=1 
C947: x33+x63-y33_63 <=1 
C948: x34+x36-y34_36 <=1 
C949: x34+x40-y34_40 <=1 
C950: x34+x41-y34_41 <=1 
C951: x34+x44-y34_44 <=1 
C952: x34+x46-y34_46 <=1 
C953: x34+x47-y34_47 <=1 
C954: x34+x48 <=1 
C955: x34+x50 <=1 
C956: x34+x54-y34_54 <=1 
C957: x34+x57 <=1 
C958: x34+x58 <=1 
C959: x34+x59 <=1 
C960: x34+x60-y34_60 <=1 
C961: x34+x61-y34_61 <=1 
C962: x34+x62 <=1 
C963: x34+x63-y34_63 <=1 
C964: x35+x36-y35_36 <=1 
C965: x35+x38-y35_38 <=1 
C966: x35+x39 <=1 
C967: x35+x42-y35_42 <=1 
C968: x35+x49 <=1 
C969: x35+x51 <=1 
C970: x35+x52 <=1 
C971: x35+x53-y35_53 <=1 
C972: x35+x56 <=1 
C973: x35+x57-y35_57 <=1 
C974: x35+x62-y35_62 <=1 
C975: x35+x63 <=1 
C976: x36+x37-y36_37 <=1 
C977: x36+x38-y36_38 <=1 
C978: x36+x39 <=1 
C979: x36+x43 <=1 
C980: x36+x44 <=1 
C981: x36+x45 <=1 
C982: x36+x46 <=1 
C983: x36+x48 <=1 
C984: x36+x49-y36_49 <=1 
C985: x36+x50 <=1 
C986: x36+x53-y36_53 <=1 
C987: x36+x54-y36_54 <=1 
C988: x36+x56-y36_56 <=1 
C989: x36+x57-y36_57 <=1 
C990: x36+x60 <=1 
C991: x36+x61 <=1 
C992: x36+x62-y36_62 <=1 
C993: x36+x63 <=1 
C994: x37+x38-y37_38 <=1 
C995: x37+x40-y37_40 <=1 
C996: x37+x41-y37_41 <=1 
C997: x37+x42 <=1 
C998: x37+x43-y37_43 <=1 
C999: x37+x46 <=1 
C1000: x37+x51 <=1 
C1001: x37+x53-y37_53 <=1 
C1002: x37+x55-y37_55 <=1 
C1003: x37+x56 <=1 
C1004: x37+x57 <=1 
C1005: x37+x60 <=1 
C1006: x37+x61 <=1 
C1007: x37+x63-y37_63 <=1 
C1008: x38+x39 <=1 
C1009: x38+x40-y38_40 <=1 
C1010: x38+x41-y38_41 <=1 
C1011: x38+x42 <=1 
C1012: x38+x43 <=1 
C1013: x38+x47-y38_47 <=1 
C1014: x38+x49 <=1 
C1015: x38+x50 <=1 
C1016: x38+x51 <=1 
C1017: x38+x52-y38_52 <=1 
C1018: x38+x54-y38_54 <=1 
C1019: x38+x55-y38_55 <=1 
C1020: x38+x56-y38_56 <=1 
C1021: x38+x57 <=1 
C1022: x38+x60-y38_60 <=1 
C1023: x39+x41-y39_41 <=1 
C1024: x39+x42 <=1 
C1025: x39+x43-y39_43 <=1 
C1026: x39+x45 <=1 
C1027: x39+x46 <=1 
C1028: x39+x47-y39_47 <=1 
C1029: x39+x49 <=1 
C1030: x39+x50-y39_50 <=1 
C1031: x39+x52-y39_52 <=1 
C1032: x39+x53-y39_53 <=1 
C1033: x39+x54 <=1 
C1034: x39+x55 <=1 
C1035: x39+x56-y39_56 <=1 
C1036: x39+x58-y39_58 <=1 
C1037: x39+x59 <=1 
C1038: x39+x60-y39_60 <=1 
C1039: x39+x61-y39_61 <=1 
C1040: x39+x62 <=1 
C1041: x39+x63 <=1 
C1042: x40+x42 <=1 
C1043: x40+x44 <=1 
C1044: x40+x46-y40_46 <=1 
C1045: x40+x47-y40_47 <=1 
C1046: x40+x49 <=1 
C1047: x40+x50 <=1 
C1048: x40+x51-y40_51 <=1 
C1049: x40+x53 <=1 
C1050: x40+x59 <=1 
C1051: x40+x61 <=1 
C1052: x41+x43-y41_43 <=1 
C1053: x41+x46-y41_46 <=1 
C1054: x41+x47-y41_47 <=1 
C1055: x41+x49 <=1 
C1056: x41+x50-y41_50 <=1 
C1057: x41+x52-y41_52 <=1 
C1058: x41+x53 <=1 
C1059: x41+x54-y41_54 <=1 
C1060: x41+x55-y41_55 <=1 
C1061: x41+x57 <=1 
C1062: x41+x59 <=1 
C1063: x41+x62 <=1 
C1064: x41+x63 <=1 
C1065: x42+x45 <=1 
C1066: x42+x49 <=1 
C1067: x42+x51 <=1 
C1068: x42+x53 <=1 
C1069: x42+x58-y42_58 <=1 
C1070: x42+x62-y42_62 <=1 
C1071: x42+x63-y42_63 <=1 
C1072: x43+x44 <=1 
C1073: x43+x45-y43_45 <=1 
C1074: x43+x46-y43_46 <=1 
C1075: x43+x48-y43_48 <=1 
C1076: x43+x49-y43_49 <=1 
C1077: x43+x53-y43_53 <=1 
C1078: x43+x54 <=1 
C1079: x43+x55-y43_55 <=1 
C1080: x43+x56 <=1 
C1081: x43+x57 <=1 
C1082: x43+x59 <=1 
C1083: x43+x63 <=1 
C1084: x44+x47 <=1 
C1085: x44+x50 <=1 
C1086: x44+x52 <=1 
C1087: x44+x53-y44_53 <=1 
C1088: x44+x54-y44_54 <=1 
C1089: x44+x56-y44_56 <=1 
C1090: x44+x59-y44_59 <=1 
C1091: x44+x60 <=1 
C1092: x44+x62 <=1 
C1093: x45+x49 <=1 
C1094: x45+x50 <=1 
C1095: x45+x52-y45_52 <=1 
C1096: x45+x53-y45_53 <=1 
C1097: x45+x55-y45_55 <=1 
C1098: x45+x56-y45_56 <=1 
C1099: x45+x57-y45_57 <=1 
C1100: x45+x58-y45_58 <=1 
C1101: x45+x62-y45_62 <=1 
C1102: x45+x63 <=1 
C1103: x46+x47 <=1 
C1104: x46+x50 <=1 
C1105: x46+x51 <=1 
C1106: x46+x52 <=1 
C1107: x46+x53 <=1 
C1108: x46+x54 <=1 
C1109: x46+x57-y46_57 <=1 
C1110: x46+x58 <=1 
C1111: x46+x59-y46_59 <=1 
C1112: x46+x61 <=1 
C1113: x46+x62-y46_62 <=1 
C1114: x46+x63-y46_63 <=1 
C1115: x47+x48 <=1 
C1116: x47+x53-y47_53 <=1 
C1117: x47+x56 <=1 
C1118: x47+x59-y47_59 <=1 
C1119: x47+x62-y47_62 <=1 
C1120: x47+x63 <=1 
C1121: x48+x49-y48_49 <=1 
C1122: x48+x51 <=1 
C1123: x48+x53-y48_53 <=1 
C1124: x48+x54-y48_54 <=1 
C1125: x48+x55-y48_55 <=1 
C1126: x48+x61 <=1 
C1127: x48+x62 <=1 
C1128: x48+x63-y48_63 <=1 
C1129: x49+x50-y49_50 <=1 
C1130: x49+x52 <=1 
C1131: x49+x53 <=1 
C1132: x49+x56-y49_56 <=1 
C1133: x49+x58-y49_58 <=1 
C1134: x49+x60-y49_60 <=1 
C1135: x49+x61-y49_61 <=1 
C1136: x49+x62-y49_62 <=1 
C1137: x50+x51-y50_51 <=1 
C1138: x50+x52-y50_52 <=1 
C1139: x50+x54 <=1 
C1140: x50+x57 <=1 
C1141: x50+x58-y50_58 <=1 
C1142: x50+x59-y50_59 <=1 
C1143: x50+x60 <=1 
C1144: x50+x62 <=1 
C1145: x51+x52 <=1 
C1146: x51+x53 <=1 
C1147: x51+x54-y51_54 <=1 
C1148: x51+x58 <=1 
C1149: x51+x59-y51_59 <=1 
C1150: x51+x60 <=1 
C1151: x52+x54 <=1 
C1152: x52+x56 <=1 
C1153: x52+x57-y52_57 <=1 
C1154: x52+x58 <=1 
C1155: x52+x59 <=1 
C1156: x53+x54-y53_54 <=1 
C1157: x53+x55 <=1 
C1158: x53+x57-y53_57 <=1 
C1159: x53+x58 <=1 
C1160: x53+x60 <=1 
C1161: x53+x61-y53_61 <=1 
C1162: x53+x62 <=1 
C1163: x54+x57 <=1 
C1164: x54+x59 <=1 
C1165: x54+x60-y54_60 <=1 
C1166: x54+x62 <=1 
C1167: x54+x63-y54_63 <=1 
C1168: x55+x57-y55_57 <=1 
C1169: x55+x58 <=1 
C1170: x55+x59-y55_59 <=1 
C1171: x55+x60-y55_60 <=1 
C1172: x55+x61-y55_61 <=1 
C1173: x55+x62 <=1 
C1174: x56+x57-y56_57 <=1 
C1175: x56+x58 <=1 
C1176: x56+x59-y56_59 <=1 
C1177: x56+x60-y56_60 <=1 
C1178: x56+x61 <=1 
C1179: x56+x62 <=1 
C1180: x56+x63 <=1 
C1181: x57+x58 <=1 
C1182: x57+x59-y57_59 <=1 
C1183: x57+x62 <=1 
C1184: x57+x63-y57_63 <=1 
C1185: x58+x59 <=1 
C1186: x58+x60-y58_60 <=1 
C1187: x59+x60-y59_60 <=1 
C1188: x59+x62 <=1 
C1189: x59+x63-y59_63 <=1 
C1190: x60+x61 <=1 
C1191: x60+x63 <=1 
C1192: x62+x63 <=1 

binary
x0
x1
x2
x3
x4
x5
x6
x7
x8
x9
x10
x11
x12
x13
x14
x15
x16
x17
x18
x19
x20
x21
x22
x23
x24
x25
x26
x27
x28
x29
x30
x31
x32
x33
x34
x35
x36
x37
x38
x39
x40
x41
x42
x43
x44
x45
x46
x47
x48
x49
x50
x51
x52
x53
x54
x55
x56
x57
x58
x59
x60
x61
x62
x63
