problem_generation/data/GISP/train/er_n=64_m=1192_p=0.60_SET2_setparam=100.00_alpha=0.50_787.sol
objective value:                                 1181
x0                                                  1 	(obj:100)
x4                                                  1 	(obj:100)
x16                                                 1 	(obj:100)
x19                                                 1 	(obj:100)
x23                                                 1 	(obj:100)
x25                                                 1 	(obj:100)
x33                                                 1 	(obj:100)
x34                                                 1 	(obj:100)
x35                                                 1 	(obj:100)
x38                                                 1 	(obj:100)
x45                                                 1 	(obj:100)
x61                                                 1 	(obj:100)
y33_38                                              1 	(obj:-1)
y25_61                                              1 	(obj:-1)
y23_38                                              1 	(obj:-1)
y23_33                                              1 	(obj:-1)
y4_38                                               1 	(obj:-1)
y0_45                                               1 	(obj:-1)
y34_61                                              1 	(obj:-1)
y19_25                                              1 	(obj:-1)
y25_45                                              1 	(obj:-1)
y33_35                                              1 	(obj:-1)
y16_25                                              1 	(obj:-1)
y16_34                                              1 	(obj:-1)
y35_38                                              1 	(obj:-1)
y4_23                                               1 	(obj:-1)
y4_45                                               1 	(obj:-1)
y16_19                                              1 	(obj:-1)
y0_25                                               1 	(obj:-1)
y0_38                                               1 	(obj:-1)
y33_61                                              1 	(obj:-1)
